unsat
(define-fun InvF ((x Int) (n Int) (m Int) (z1 Int) (z2 Int) (z3 Int)) Bool (let ((_let_1 (* (- 1) m))) (and (>= m 0) (>= (+ x _let_1) 0) (or (>= (+ n _let_1) 1) (not (>= (+ x (* (- 1) n)) 0)) (not (>= n 1))))))
0.55user 0.00system 0:00.55elapsed 100%CPU (0avgtext+0avgdata 31692maxresident)k
0inputs+8outputs (0major+2712minor)pagefaults 0swaps
